143
0 92 98 59 131 111 44 62 75 30 
85 74 94 18 96 78 100 42 67 110 
22 101 106 65 49 72 52 15 115 141 
91 134 60 55 137 34 2 109 47 117 
118 123 73 107 140 13 77 80 27 61 
64 23 127 16 76 95 12 38 54 29 
120 84 32 46 19 24 79 43 119 114 
88 129 139 128 138 26 121 124 50 21 
36 45 125 122 41 71 39 132 69 1 
89 25 8 37 86 70 82 133 57 108 
58 53 31 4 113 33 136 105 6 51 
126 87 35 3 66 103 17 11 48 9 
83 40 116 135 104 93 130 56 7 10 
68 20 90 112 99 5 142 28 81 97 
63 14 102 
